c FILE			: sample.gr
c No. of vertices	: 9
c No. of directed edges	: 
c Max. weight		: 100
c Min. weight		: 1
c A directed arc from u to v of weight w
c is represented below as ' a  u  v  w '
p sp 7 11 
a 1 2 7
a 1 4 5
a 2 4 9
a 2 3 8
a 2 5 7
a 3 5 5
a 4 5 15
a 4 6 6
a 5 6 8
a 5 7 9
a 6 7 11
